(set-logic BV) (define-fun origCir ((n188 Bool) (n202 Bool) (n203 Bool) (n201 Bool) (n264 Bool)) Bool (and (not (xor (xor (and n203 n202) n201) n188)) n264)) (synth-fun skel ((n188 Bool) (n202 Bool) (n203 Bool) (n201 Bool) (n264 Bool)) Bool) (declare-var n188 Bool) (declare-var n202 Bool) (declare-var n203 Bool) (declare-var n201 Bool) (declare-var n264 Bool) (constraint (= (origCir n188 n202 n203 n201 n264) (skel n188 n202 n203 n201 n264))) (check-synth)
